Route #1: 35 3 21 52 25 33 68 11 29 37 43 30 19 7 59
Route #2: 39 41 26 54 51 4 64 20 12 56 40 24
Route #3: 48 47 22 58 42 38 46 14 53 49 9 10 18 45 31 55 6 50 27 17 13 23 62 60
Route #4: 66 5 65 28 8 15 67 44 63
Route #5: 57 2 32 61 34 16 36
Route #6: 1
Route #7: 
Route #8: 
Route #9: 
cost 2009.1269882872723
